CMD:
./solvers/bin/cadical --plain --no-reduce -t 1600 ./data/cnfs//arbitrated_top_n3_w16_d32_e0/arbitrated_top_n3_w16_d32_e0.52.cnf

c --- [ banner ] -------------------------------------------------------------
c 
c CaDiCaL SAT Solver
c Copyright (c) 2016-2024
c A. Biere, M. Fleury, N. Froleyks, K. Fazekas, F. Pollitt, T. Faller
c JKU Linz, University of Freiburg, TU Wien
c 
c Version 2.1.3 5296d3d2a9bf48c154ab2acb5e44625776d821bf
c g++ (Gentoo 12.3.1_p20230526 p2) 12.3.1 20230526 -Wall -Wextra -O3 -DNDEBUG
c Sat Aug 9 07:26:21 PDT 2025 Linux cedar2.int.cedar.computecanada.ca 5.14.0-362.24.2.el9_3.x86_64 x86_64
c 
c --- [ limit ] --------------------------------------------------------------
c 
c setting time limit to 1600 seconds real time (due to '-t 1600')
c 
c --- [ parsing input ] ------------------------------------------------------
c 
c reading DIMACS file from './data/cnfs//arbitrated_top_n3_w16_d32_e0/arbitrated_top_n3_w16_d32_e0.52.cnf'
c opening file to read './data/cnfs//arbitrated_top_n3_w16_d32_e0/arbitrated_top_n3_w16_d32_e0.52.cnf'
c found 'p cnf 499244 1483365' header
c parsed 1483365 clauses in 0.21 seconds process time
c 
c --- [ options ] ------------------------------------------------------------
c 
c   --compact=false                (different from default 'true')
c   --decompose=false              (different from default 'true')
c   --deduplicate=false            (different from default 'true')
c   --elim=false                   (different from default 'true')
c   --probe=false                  (different from default 'true')
c   --reduce=false                 (different from default 'true')
c   --subsume=false                (different from default 'true')
c   --ternary=false                (different from default 'true')
c   --transred=false               (different from default 'true')
c   --vivify=false                 (different from default 'true')
c 
c --- [ solving ] ------------------------------------------------------------
c 
c time measured in process time since initialization
c 
c  seconds   reductions  redundant   irredundant
c          MB    restarts       trail        variables
c           level   conflicts       glue           remaining
c 
c *  0.21 200  0 0   0    0    0  0% 0 1149703 263092 53%
c l  0.24 202  0 0   0    0    0  0% 0 1149703 263092 53%
c 1  0.24 202  0 0   0    0    0  0% 0 1149703 263092 53%
c 
c --- [ result ] -------------------------------------------------------------
c 
s SATISFIABLE
v 1 2 3 4 5 6 7 8 9 10 11 12 13 14 15 16 17 18 19 20 21 22 23 24 25 26 27 28
v 29 30 31 32 33 34 35 36 37 38 39 40 41 42 43 44 45 46 47 48 49 50 51 52 53
v 54 55 56 57 58 59 60 61 62 63 64 65 66 67 68 69 70 71 72 73 74 75 76 77 78
v 79 80 81 82 83 84 85 86 87 88 89 90 91 92 93 94 95 96 97 98 99 100 101 102
v 103 104 105 106 107 108 109 110 111 112 113 114 115 116 117 118 119 120 121
v 122 123 124 125 126 127 128 129 130 131 132 133 134 135 136 137 138 139 140
v 141 142 143 144 145 146 147 148 149 150 151 152 153 154 155 156 157 158 159
v 160 161 162 163 164 165 166 167 168 169 170 171 172 173 174 175 176 177 178
v 179 180 181 182 183 184 185 186 187 188 189 190 191 192 193 194 195 196 197
v 198 199 200 201 202 203 204 205 206 207 208 209 210 211 212 213 214 215 216
v 217 218 219 220 221 222 223 224 225 226 227 228 229 230 231 232 233 234 235
v 236 237 238 239 240 241 242 243 244 245 246 247 248 249 250 251 252 253 254
v 255 256 257 258 259 260 261 262 263 264 265 266 267 268 269 270 271 272 273
v 274 275 276 277 278 279 280 281 282 283 284 285 286 287 288 289 290 291 292
v 293 294 295 296 297 298 299 300 301 302 303 304 305 306 307 308 309 310 311
v 312 313 314 315 316 317 318 319 320 321 322 323 324 325 326 327 328 329 330
v 331 332 333 334 335 336 337 338 339 340 341 342 343 344 345 346 347 348 349
v 350 351 352 353 354 355 356 357 358 359 360 361 362 363 364 365 366 367 368
v 369 370 371 372 373 374 375 376 377 378 379 380 381 382 383 384 385 386 387
v 388 389 390 391 392 393 394 395 396 397 398 399 400 401 402 403 404 405 406
v 407 408 409 410 411 412 413 414 415 416 417 418 419 420 421 422 423 424 425
v 426 427 428 429 430 431 432 433 434 435 436 437 438 439 440 441 442 443 444
v 445 446 447 448 449 450 451 452 453 454 455 456 457 458 459 460 461 462 463
v 464 465 466 467 468 469 470 471 472 473 474 475 476 477 478 479 480 481 482
v 483 484 485 486 487 488 489 490 491 492 493 494 495 496 497 498 499 500 501
v 502 503 504 505 506 507 508 509 510 511 512 513 514 515 516 517 518 519 520
v 521 522 523 524 525 526 527 528 529 530 531 532 533 534 535 536 537 538 539
v 540 541 542 543 544 545 546 547 548 549 550 551 552 553 554 555 556 557 558
v 559 560 561 562 563 564 565 566 567 568 569 570 571 572 573 574 575 576 577
v 578 579 580 581 582 583 584 585 586 587 588 589 590 591 592 593 594 595 596
v 597 598 599 600 601 602 603 604 605 606 607 608 609 610 611 612 613 614 615
v 616 617 618 619 620 621 622 623 624 625 626 627 628 629 630 631 632 633 634
v 635 636 637 638 639 640 641 642 643 644 645 646 647 648 649 650 651 652 653
v 654 655 656 657 658 659 660 661 662 663 664 665 666 667 668 669 670 671 672
v 673 674 675 676 677 678 679 680 681 682 683 684 685 686 687 688 689 690 691
v 692 693 694 695 696 697 698 699 700 701 702 703 704 705 706 707 708 709 710
v 711 712 713 714 715 716 717 718 719 720 721 722 723 724 725 726 727 728 729
v 730 731 732 733 734 735 736 737 738 739 740 741 742 743 744 745 746 747 748
v 749 750 751 752 753 754 755 756 757 758 759 760 761 762 763 764 765 766 767
v 768 769 770 771 772 773 774 775 776 777 778 779 780 781 782 783 784 785 786
v 787 788 789 790 791 792 793 794 795 796 797 798 799 800 801 802 803 804 805
v 806 807 808 809 810 811 812 813 814 815 816 817 818 819 820 821 822 823 824
v 825 826 827 828 829 830 831 832 833 834 835 836 837 838 839 840 841 842 843
v 844 845 846 847 848 849 850 851 852 853 854 855 856 857 858 859 860 861 862
v 863 864 865 866 867 868 869 870 871 872 873 874 875 876 877 878 879 880 881
v 882 883 884 885 886 887 888 889 890 891 892 893 894 895 896 897 898 899 900
v 901 902 903 904 905 906 907 908 909 910 911 912 913 914 915 916 917 918 919
... skipped 50613 lines ...
v -498660 -498661 -498662 -498663 -498664 -498665 -498666 -498667 -498668
v -498669 -498670 -498671 -498672 -498673 -498674 -498675 -498676 498677
v -498678 498679 -498680 498681 498682 -498683 -498684 -498685 -498686 -498687
v 498688 498689 -498690 -498691 -498692 -498693 -498694 -498695 -498696 498697
v -498698 498699 -498700 -498701 -498702 498703 498704 -498705 498706 -498707
v -498708 -498709 498710 498711 -498712 498713 -498714 -498715 -498716 498717
v 498718 -498719 498720 498721 -498722 -498723 498724 498725 -498726 -498727
v -498728 -498729 -498730 -498731 -498732 -498733 -498734 -498735 -498736
v -498737 -498738 -498739 -498740 -498741 -498742 -498743 -498744 -498745
v -498746 -498747 -498748 -498749 -498750 -498751 -498752 -498753 -498754
v -498755 -498756 -498757 -498758 -498759 -498760 -498761 -498762 -498763
v -498764 -498765 -498766 -498767 -498768 -498769 -498770 -498771 -498772
v -498773 -498774 498775 -498776 498777 -498778 -498779 -498780 -498781
v -498782 -498783 -498784 -498785 -498786 -498787 -498788 -498789 -498790
v -498791 -498792 -498793 -498794 -498795 -498796 -498797 -498798 -498799
v -498800 -498801 -498802 -498803 -498804 -498805 -498806 -498807 -498808
v -498809 -498810 498811 -498812 498813 -498814 -498815 -498816 -498817
v -498818 -498819 -498820 -498821 -498822 -498823 -498824 -498825 -498826
v -498827 -498828 -498829 -498830 -498831 -498832 -498833 -498834 -498835
v -498836 -498837 -498838 -498839 -498840 -498841 -498842 -498843 -498844
v -498845 -498846 498847 -498848 498849 -498850 -498851 -498852 -498853
v -498854 -498855 -498856 -498857 -498858 -498859 -498860 -498861 -498862
v -498863 -498864 -498865 -498866 -498867 -498868 -498869 -498870 -498871
v -498872 -498873 -498874 -498875 -498876 -498877 -498878 -498879 -498880
v -498881 -498882 498883 -498884 498885 -498886 -498887 498888 -498889 -498890
v -498891 -498892 -498893 -498894 498895 498896 -498897 -498898 -498899 498900
v -498901 498902 -498903 -498904 498905 -498906 498907 -498908 -498909 498910
v -498911 498912 -498913 -498914 498915 -498916 498917 -498918 -498919 498920
v -498921 498922 498923 -498924 -498925 498926 -498927 -498928 -498929 -498930
v -498931 -498932 498933 -498934 -498935 -498936 -498937 -498938 -498939
v 498940 -498941 -498942 -498943 -498944 -498945 -498946 498947 -498948
v -498949 -498950 -498951 -498952 -498953 498954 -498955 -498956 -498957
v -498958 -498959 -498960 498961 -498962 -498963 -498964 -498965 -498966
v -498967 -498968 -498969 -498970 -498971 -498972 -498973 -498974 -498975
v -498976 -498977 -498978 -498979 -498980 -498981 -498982 -498983 -498984
v -498985 -498986 -498987 -498988 -498989 -498990 -498991 -498992 -498993
v -498994 -498995 -498996 498997 -498998 498999 -499000 -499001 -499002
v -499003 -499004 -499005 -499006 -499007 -499008 -499009 -499010 -499011
v -499012 -499013 -499014 -499015 -499016 -499017 -499018 -499019 -499020
v -499021 -499022 -499023 -499024 -499025 -499026 -499027 -499028 -499029
v -499030 -499031 -499032 -499033 499034 -499035 -499036 -499037 -499038
v -499039 -499040 -499041 -499042 -499043 -499044 -499045 -499046 -499047
v -499048 -499049 -499050 -499051 -499052 -499053 -499054 -499055 -499056
v -499057 -499058 -499059 -499060 -499061 -499062 -499063 -499064 -499065
v -499066 -499067 -499068 -499069 499070 -499071 499072 -499073 499074 -499075
v 499076 -499077 -499078 499079 499080 -499081 -499082 499083 -499084 -499085
v -499086 -499087 -499088 -499089 -499090 -499091 -499092 499093 499094
v -499095 499096 -499097 -499098 -499099 499100 499101 -499102 499103 -499104
v -499105 -499106 499107 499108 -499109 499110 -499111 -499112 -499113 -499114
v 499115 -499116 499117 -499118 499119 -499120 -499121 499122 -499123 -499124
v 499125 -499126 -499127 499128 -499129 -499130 499131 499132 -499133 499134
v -499135 -499136 -499137 -499138 -499139 -499140 -499141 -499142 -499143
v -499144 -499145 -499146 -499147 -499148 -499149 -499150 -499151 -499152
v -499153 -499154 -499155 -499156 -499157 -499158 -499159 -499160 -499161
v -499162 -499163 -499164 -499165 -499166 499167 -499168 499169 -499170
v -499171 -499172 -499173 -499174 -499175 -499176 -499177 -499178 -499179
v -499180 -499181 -499182 -499183 -499184 -499185 -499186 -499187 -499188
v -499189 -499190 -499191 -499192 -499193 -499194 -499195 -499196 -499197
v -499198 -499199 -499200 -499201 -499202 499203 -499204 499205 -499206
v -499207 -499208 -499209 -499210 -499211 -499212 -499213 -499214 -499215
v -499216 -499217 -499218 -499219 -499220 -499221 -499222 -499223 -499224
v -499225 -499226 -499227 -499228 -499229 -499230 -499231 -499232 -499233
v -499234 -499235 -499236 -499237 -499238 499239 -499240 499241 -499242 499243
v -499244 0
c 
c --- [ run-time profiling ] -------------------------------------------------
c 
c process time taken by individual solving procedures
c (percentage relative to process time for solving)
c 
c         0.21  897.17% parse
c         0.02   99.50% lucky
c         0.02   99.50% search
c         0.00    0.00% simplify
c   =================================
c         0.02    9.08% solve
c 
c last line shows process time for solving
c (percentage relative to total process time)
c 
c --- [ statistics ] ---------------------------------------------------------
c 
c fixed:                    236106        47.29 %  of all variables
c lucky:                         1       100.00 %  of tried
c minimized:                     0         0.00 %  learned literals
c shrunken:                      0         0.00 %  learned literals
c minishrunken:                  0         0.00 %  learned literals
c propagations:             236106         9.99 M  per second
c 
c seconds are measured in process time for solving
c 
c --- [ resources ] ----------------------------------------------------------
c 
c total process time since initialization:         0.26    seconds
c total real time since initialization:            0.27    seconds
c maximum resident set size of process:          200.82    MB
c 
c --- [ shutting down ] ------------------------------------------------------
c 
c exit 10
